5 5
4 48 2 80 0 60 1 33 3 3
1 4 2 4 4 42 3 9 0 51
4 17 2 17 1 97 3 20 0 14
4 22 1 52 2 27 3 43 0 3
2 88 0 94 4 8 3 86 1 89
-1
0 2 5
0 1 2 3 5
0 2 5
0 2 4 5
0 1 3 5
-2
174 234
5 11 56 157
48 221
118 173 183
136 234 404

367 9
21 2 14 9 19
5 16 12 3 24
20 11 1 6 17
23 13 4 8 18
10 15 0 22 7
